Route 1: 0 72 74 57 44 27 40 29 0
Route 2: 0 41 65 91 81 52 51 71 68 14 53 8 0
Route 3: 0 25 54 75 46 34 43 6 3 93 98 97 0
Route 4: 0 48 62 55 15 18 49 35 39 12 96 0
Route 5: 0 70 20 85 100 30 83 50 0
Route 6: 0 13 17 76 37 42 59 31 73 0
Route 7: 0 22 77 33 10 88 19 64 89 38 79 24 0
Route 8: 0 94 92 99 84 69 95 47 87 9 58 0
Route 9: 0 1 63 60 78 28 2 32 86 56 7 0
Route 10: 0 67 11 23 66 16 82 5 4 0
Route 11: 0 80 45 36 26 90 61 21 0
